NAME : rnd12_20.tsp
TYPE : TSP
DIMENSION : 20
EDGE_WEIGHT_TYPE : EUC_2D
NODE_COORD_SECTION
0 755 418
1 466 969
2 622 356
3 736 225
4 819 355
5 358 123
6 465 537
7 648 953
8 730 644
9 730 860
10 713 22
11 752 387
12 401 102
13 166 793
14 438 803
15 223 351
16 524 547
17 591 583
18 27 308
19 713 629
